# Objective value = 1.0706910000000053e+04
I_0_0 4099
I_0_1 5.4689999999999864e+03
I_0_2 4.7510000000000618e+03
I_0_3 5.6439999999999054e+03
I_1_0 95
I_1_1 0
I_1_2 95
I_1_3 0
I_2_0 85
I_2_1 0
I_2_2 85
I_2_3 0
I_3_0 69
I_3_1 0
I_3_2 69
I_3_3 0
I_4_0 192
I_4_1 192
I_4_2 96
I_4_3 0
I_5_0 158
I_5_1 79
I_5_2 1.5800000000000003e+02
I_5_3 7.9000000000000028e+01
I_6_0 99
I_6_1 0
I_6_2 99
I_6_3 0
I_7_0 73
I_7_1 0
I_7_2 73
I_7_3 0
I_8_0 122
I_8_1 6.0999999999998934e+01
I_8_2 1.2199999999999903e+02
I_8_3 6.1000000000002110e+01
I_9_0 48
I_9_1 0
I_9_2 48
I_9_3 0
I_10_0 170
I_10_1 85
I_10_2 -2.8478552849264815e-11
I_10_3 170.000000000014
I_11_0 57
I_11_1 0
I_11_2 5.6999999999999986e+01
I_11_3 0
I_12_0 56
I_12_1 0
I_12_2 56
I_12_3 0
I_13_0 74
I_13_1 37
I_13_2 74
I_13_3 37
I_14_0 88
I_14_1 4.4000000000000341e+01
I_14_2 8.8000000000000313e+01
I_14_3 4.3999999999999211e+01
I_15_0 74
I_15_1 0
I_15_2 7.4000000000000114e+01
I_15_3 -1.1501910535116622e-13
I_16_0 57
I_16_1 57.0000000000193
I_16_2 -1.9307555554348710e-11
I_16_3 57.0000000000193
I_17_0 124
I_17_1 124
I_17_2 6.1999999999999886e+01
I_17_3 1.5944578990456648e-11
I_18_0 36
I_18_1 -5.3637094765690563e-12
I_18_2 3.6000000000005372e+01
I_18_3 -5.3637094765690563e-12
I_19_0 35
I_19_1 2.9726221484338566e-13
I_19_2 3.4999999999999687e+01
I_19_3 2.9726221484338566e-13
I_20_0 58
I_20_1 0
I_20_2 58
I_20_3 0
I_21_0 80
I_21_1 7.9999999999989285e+01
I_21_2 1.0680345496894006e-11
I_21_3 7.9999999999989285e+01
I_22_0 66
I_22_1 0
I_22_2 66
I_22_3 0
I_23_0 47
I_23_1 4.7000000000007262e+01
I_23_2 -7.2570005560379514e-12
I_23_3 4.7000000000007262e+01
I_24_0 62
I_24_1 31
I_24_2 62
I_24_3 31
I_25_0 26
I_25_1 1.3000000000000004e+01
I_25_2 2.5999999999999996e+01
I_25_3 13
I_26_0 28
I_26_1 28
I_26_2 0
I_26_3 28
I_27_0 74
I_27_1 3.7000000000000796e+01
I_27_2 -6.1106675275368616e-12
I_27_3 74.0000000000398
I_28_0 30
I_28_1 15
I_28_2 3.0000000000000895e+01
I_28_3 1.4999999999998424e+01
I_29_0 15
I_29_1 0
I_29_2 15
I_29_3 0
I_30_0 30
I_30_1 15
I_30_2 30
I_30_3 1.5000000000000002e+01
I_31_0 29
I_31_1 0
I_31_2 29
I_31_3 0
I_32_0 38
I_32_1 1.8999999999996742e+01
I_32_2 -1.1915801678696880e-11
I_32_3 3.8000000000015184e+01
I_33_0 26
I_33_1 13
I_33_2 2.6000000000000451e+01
I_33_3 1.2999999999999837e+01
I_34_0 14
I_34_1 2.2009061240169103e-12
I_34_2 1.3999999999997796e+01
I_34_3 2.2009061240169103e-12
I_35_0 24
I_35_1 1.2000000000004642e+01
I_35_2 2.3999999999998181e+01
I_35_3 1.1999999999995381e+01
q_1_0 0
q_1_1 190
q_1_2 0
q_2_0 0
q_2_1 170
q_2_2 0
q_3_0 0
q_3_1 138
q_3_2 0
q_4_0 96
q_4_1 0
q_4_2 0
q_5_0 0
q_5_1 1.5800000000000003e+02
q_5_2 0
q_6_0 0
q_6_1 198
q_6_2 0
q_7_0 0
q_7_1 146
q_7_2 0
q_8_0 -1.0632605906835124e-12
q_8_1 122
q_8_2 3.0624391911260318e-12
q_9_0 0
q_9_1 96
q_9_2 0
q_10_0 0
q_10_1 -2.8322233447397593e-11
q_10_2 2.5500000000004249e+02
q_11_0 0
q_11_1 1.1399999999999999e+02
q_11_2 1.4210854715202004e-14
q_12_0 0
q_12_1 112
q_12_2 0
q_13_0 0
q_13_1 74
q_13_2 0
q_14_0 3.3950620093037287e-13
q_14_1 88
q_14_2 -1.1084466677857563e-12
q_15_0 0
q_15_1 1.4800000000000011e+02
q_15_2 -2.2870594307278225e-13
q_16_0 57.0000000000193
q_16_1 -3.8605896257593031e-11
q_16_2 1.1400000000003860e+02
q_17_0 62
q_17_1 -8.2600593032111647e-14
q_17_2 1.6058265828178264e-11
q_18_0 -5.3637094765690563e-12
q_18_1 7.2000000000010743e+01
q_18_2 -1.0735412558915414e-11
q_19_0 2.9726221484338566e-13
q_19_1 6.9999999999999389e+01
q_19_2 6.0990101857782975e-13
q_20_0 0
q_20_1 116
q_20_2 0
q_21_0 7.9999999999989285e+01
q_21_1 2.1395329952156317e-11
q_21_2 1.5999999999997860e+02
q_22_0 0
q_22_1 132
q_22_2 0
q_23_0 4.7000000000007262e+01
q_23_1 -1.4518747315506175e-11
q_23_2 9.4000000000014523e+01
q_24_0 0
q_24_1 62
q_24_2 0
q_25_0 2.8865798640254070e-15
q_25_1 26
q_25_2 2.6645352591003757e-15
q_26_0 28
q_26_1 0
q_26_2 56
q_27_0 7.9486417448038083e-13
q_27_1 -6.8975936073911726e-12
q_27_2 1.1100000000004592e+02
q_28_0 0
q_28_1 3.0000000000000924e+01
q_28_2 -2.4744650772845489e-12
q_29_0 0
q_29_1 30
q_29_2 0
q_30_0 0
q_30_1 30
q_30_2 0
q_31_0 0
q_31_1 58
q_31_2 0
q_32_0 -3.25796699790766e-12
q_32_1 -8.65085780787922e-12
q_32_2 57.0000000000271
q_33_0 0
q_33_1 2.6000000000000391e+01
q_33_2 -6.1461946643248666e-13
q_34_0 2.2009061240169103e-12
q_34_1 2.7999999999995595e+01
q_34_2 4.4053649617126212e-12
q_35_0 4.6416204213528545e-12
q_35_1 2.3999999999993459e+01
q_35_2 -2.7995383788947947e-12
y_0_0 1
y_0_1 1
y_0_2 1
y_1_0 0
y_1_1 1
y_1_2 0
y_2_0 0
y_2_1 1
y_2_2 0
y_3_0 0
y_3_1 1
y_3_2 0
y_4_0 1
y_4_1 0
y_4_2 0
y_5_0 0
y_5_1 1
y_5_2 0
y_6_0 0
y_6_1 1
y_6_2 0
y_7_0 0
y_7_1 1
y_7_2 0
y_8_0 -1.7430501486614958e-14
y_8_1 1
y_8_2 1.7430501486614958e-14
y_9_0 0
y_9_1 1
y_9_2 0
y_10_0 0
y_10_1 -1.6692203175239229e-13
y_10_2 1.0000000000001665e+00
y_11_0 0
y_11_1 9.9999999999999978e-01
y_11_2 0
y_12_0 0
y_12_1 1
y_12_2 0
y_13_0 0
y_13_1 1
y_13_2 0
y_14_0 7.7160500211448380e-15
y_14_1 1
y_14_2 -7.7160500211448380e-15
y_15_0 0
y_15_1 1.0000000000000016e+00
y_15_2 -1.5543122344752192e-15
y_16_0 1.0000000000003386e+00
y_16_1 -3.3872904481313526e-13
y_16_2 1.0000000000003386e+00
y_17_0 1
y_17_1 -6.6613381477509392e-16
y_17_2 8.5931262105987116e-14
y_18_0 -1.48991929904696e-13
y_18_1 1.0000000000001492e+00
y_18_2 -1.48991929904696e-13
y_19_0 8.4932061383824475e-15
y_19_1 9.9999999999999112e-01
y_19_2 8.4932061383824475e-15
y_20_0 0
y_20_1 1
y_20_2 0
y_21_0 9.9999999999986611e-01
y_21_1 1.3350431871117507e-13
y_21_2 9.9999999999986611e-01
y_22_0 0
y_22_1 1
y_22_2 0
y_23_0 1.0000000000001545e+00
y_23_1 -1.5440426714974365e-13
y_23_2 1.0000000000001545e+00
y_24_0 0
y_24_1 1
y_24_2 0
y_25_0 2.2204460492503131e-16
y_25_1 1
y_25_2 0
y_26_0 1
y_26_1 0
y_26_2 1
y_27_0 2.1482815526496779e-14
y_27_1 -9.58955137519979e-14
y_27_2 1.0000000000004161e+00
y_28_0 0
y_28_1 1.0000000000000306e+00
y_28_2 -5.3929083421166979e-14
y_29_0 0
y_29_1 1
y_29_2 0
y_30_0 0
y_30_1 1
y_30_2 0
y_31_0 0
y_31_1 1
y_31_2 0
y_32_0 -1.7147194725829788e-13
y_32_1 -2.2754020889692583e-13
y_32_2 1.0000000000003990e+00
y_33_0 0
y_33_1 0.999999999999978
y_33_2 -1.3655743202889425e-14
y_34_0 1.5720758028692217e-13
y_34_1 9.9999999999984257e-01
y_34_2 1.5720758028692217e-13
y_35_0 3.8680170177940454e-13
y_35_1 9.9999999999972422e-01
y_35_2 -1.0902390101819037e-13
x_0_1_0 0
x_0_1_1 0
x_0_1_2 0
x_0_2_0 0
x_0_2_1 0
x_0_2_2 0
x_0_3_0 0
x_0_3_1 0
x_0_3_2 0
x_0_4_0 0
x_0_4_1 0
x_0_4_2 0
x_0_5_0 0
x_0_5_1 0
x_0_5_2 0
x_0_6_0 0
x_0_6_1 0
x_0_6_2 0
x_0_7_0 0
x_0_7_1 0
x_0_7_2 0
x_0_8_0 0
x_0_8_1 0
x_0_8_2 0
x_0_9_0 0
x_0_9_1 0
x_0_9_2 0
x_0_10_0 0
x_0_10_1 0
x_0_10_2 0
x_0_11_0 0
x_0_11_1 0
x_0_11_2 0
x_0_12_0 0
x_0_12_1 0
x_0_12_2 0
x_0_13_0 0
x_0_13_1 0
x_0_13_2 0
x_0_14_0 0
x_0_14_1 0
x_0_14_2 0
x_0_15_0 0
x_0_15_1 0
x_0_15_2 0
x_0_16_0 0
x_0_16_1 0
x_0_16_2 0
x_0_17_0 1.0000000000002067e+00
x_0_17_1 0
x_0_17_2 0
x_0_18_0 0
x_0_18_1 0
x_0_18_2 0
x_0_19_0 0
x_0_19_1 0
x_0_19_2 0
x_0_20_0 0
x_0_20_1 0
x_0_20_2 0
x_0_21_0 9.9999999999977940e-01
x_0_21_1 2.1155299734232358e-13
x_0_21_2 9.9999999999982858e-01
x_0_22_0 -2.9698465908722937e-13
x_0_22_1 1
x_0_22_2 -3.0115673956690169e-13
x_0_23_0 0
x_0_23_1 0
x_0_23_2 0
x_0_24_0 0
x_0_24_1 0
x_0_24_2 0
x_0_25_0 0
x_0_25_1 0
x_0_25_2 0
x_0_26_0 0
x_0_26_1 0
x_0_26_2 0
x_0_27_0 2.1482615636991025e-13
x_0_27_1 -2.6201263381153694e-14
x_0_27_2 1.0000000000006315e+00
x_0_28_0 0
x_0_28_1 0
x_0_28_2 0
x_0_29_0 0
x_0_29_1 0
x_0_29_2 0
x_0_30_0 0
x_0_30_1 0
x_0_30_2 0
x_0_31_0 0
x_0_31_1 0
x_0_31_2 0
x_0_32_0 0
x_0_32_1 0
x_0_32_2 0
x_0_33_0 0
x_0_33_1 0
x_0_33_2 0
x_0_34_0 0
x_0_34_1 0
x_0_34_2 0
x_0_35_0 9.6667118754112380e-13
x_0_35_1 9.9999999999970224e-01
x_0_35_2 -7.8825834748386114e-14
x_1_2_0 0
x_1_2_1 0
x_1_2_2 0
x_1_3_0 0
x_1_3_1 1
x_1_3_2 0
x_1_4_0 0
x_1_4_1 0
x_1_4_2 0
x_1_5_0 0
x_1_5_1 0
x_1_5_2 0
x_1_6_0 0
x_1_6_1 0
x_1_6_2 0
x_1_7_0 0
x_1_7_1 1
x_1_7_2 0
x_1_8_0 0
x_1_8_1 0
x_1_8_2 0
x_1_9_0 0
x_1_9_1 0
x_1_9_2 0
x_1_10_0 0
x_1_10_1 0
x_1_10_2 0
x_1_11_0 0
x_1_11_1 0
x_1_11_2 0
x_1_12_0 0
x_1_12_1 0
x_1_12_2 0
x_1_13_0 0
x_1_13_1 0
x_1_13_2 0
x_1_14_0 0
x_1_14_1 0
x_1_14_2 0
x_1_15_0 0
x_1_15_1 0
x_1_15_2 0
x_1_16_0 0
x_1_16_1 0
x_1_16_2 0
x_1_17_0 0
x_1_17_1 0
x_1_17_2 0
x_1_18_0 0
x_1_18_1 0
x_1_18_2 0
x_1_19_0 0
x_1_19_1 0
x_1_19_2 0
x_1_20_0 0
x_1_20_1 0
x_1_20_2 0
x_1_21_0 0
x_1_21_1 0
x_1_21_2 0
x_1_22_0 0
x_1_22_1 0
x_1_22_2 0
x_1_23_0 0
x_1_23_1 0
x_1_23_2 0
x_1_24_0 0
x_1_24_1 0
x_1_24_2 0
x_1_25_0 0
x_1_25_1 0
x_1_25_2 0
x_1_26_0 0
x_1_26_1 0
x_1_26_2 0
x_1_27_0 0
x_1_27_1 0
x_1_27_2 0
x_1_28_0 0
x_1_28_1 0
x_1_28_2 0
x_1_29_0 0
x_1_29_1 0
x_1_29_2 0
x_1_30_0 0
x_1_30_1 0
x_1_30_2 0
x_1_31_0 0
x_1_31_1 0
x_1_31_2 0
x_1_32_0 0
x_1_32_1 0
x_1_32_2 0
x_1_33_0 0
x_1_33_1 0
x_1_33_2 0
x_1_34_0 0
x_1_34_1 0
x_1_34_2 0
x_1_35_0 0
x_1_35_1 0
x_1_35_2 0
x_2_3_0 0
x_2_3_1 0
x_2_3_2 0
x_2_4_0 0
x_2_4_1 0
x_2_4_2 0
x_2_5_0 0
x_2_5_1 0
x_2_5_2 0
x_2_6_0 0
x_2_6_1 0
x_2_6_2 0
x_2_7_0 0
x_2_7_1 0
x_2_7_2 0
x_2_8_0 0
x_2_8_1 0
x_2_8_2 0
x_2_9_0 0
x_2_9_1 9.9999999999999978e-01
x_2_9_2 0
x_2_10_0 0
x_2_10_1 0
x_2_10_2 0
x_2_11_0 0
x_2_11_1 2.2204460492503131e-16
x_2_11_2 0
x_2_12_0 0
x_2_12_1 0
x_2_12_2 0
x_2_13_0 0
x_2_13_1 0
x_2_13_2 0
x_2_14_0 0
x_2_14_1 0
x_2_14_2 0
x_2_15_0 0
x_2_15_1 0
x_2_15_2 0
x_2_16_0 0
x_2_16_1 0
x_2_16_2 0
x_2_17_0 0
x_2_17_1 0
x_2_17_2 0
x_2_18_0 0
x_2_18_1 0
x_2_18_2 0
x_2_19_0 0
x_2_19_1 0
x_2_19_2 0
x_2_20_0 0
x_2_20_1 0
x_2_20_2 0
x_2_21_0 0
x_2_21_1 0
x_2_21_2 0
x_2_22_0 0
x_2_22_1 0
x_2_22_2 0
x_2_23_0 0
x_2_23_1 0
x_2_23_2 0
x_2_24_0 0
x_2_24_1 0
x_2_24_2 0
x_2_25_0 0
x_2_25_1 1
x_2_25_2 0
x_2_26_0 0
x_2_26_1 0
x_2_26_2 0
x_2_27_0 0
x_2_27_1 0
x_2_27_2 0
x_2_28_0 0
x_2_28_1 0
x_2_28_2 0
x_2_29_0 0
x_2_29_1 0
x_2_29_2 0
x_2_30_0 0
x_2_30_1 0
x_2_30_2 0
x_2_31_0 0
x_2_31_1 0
x_2_31_2 0
x_2_32_0 0
x_2_32_1 0
x_2_32_2 0
x_2_33_0 0
x_2_33_1 0
x_2_33_2 0
x_2_34_0 0
x_2_34_1 0
x_2_34_2 0
x_2_35_0 0
x_2_35_1 0
x_2_35_2 0
x_3_4_0 0
x_3_4_1 0
x_3_4_2 0
x_3_5_0 0
x_3_5_1 0
x_3_5_2 0
x_3_6_0 0
x_3_6_1 0
x_3_6_2 0
x_3_7_0 0
x_3_7_1 0
x_3_7_2 0
x_3_8_0 0
x_3_8_1 0
x_3_8_2 0
x_3_9_0 0
x_3_9_1 0
x_3_9_2 0
x_3_10_0 0
x_3_10_1 0
x_3_10_2 0
x_3_11_0 0
x_3_11_1 0
x_3_11_2 0
x_3_12_0 0
x_3_12_1 0
x_3_12_2 0
x_3_13_0 0
x_3_13_1 0
x_3_13_2 0
x_3_14_0 0
x_3_14_1 9.9999999999999378e-01
x_3_14_2 0
x_3_15_0 0
x_3_15_1 0
x_3_15_2 0
x_3_16_0 0
x_3_16_1 0
x_3_16_2 0
x_3_17_0 0
x_3_17_1 0
x_3_17_2 0
x_3_18_0 0
x_3_18_1 0
x_3_18_2 0
x_3_19_0 0
x_3_19_1 6.2172489379008766e-15
x_3_19_2 0
x_3_20_0 0
x_3_20_1 0
x_3_20_2 0
x_3_21_0 0
x_3_21_1 0
x_3_21_2 0
x_3_22_0 0
x_3_22_1 0
x_3_22_2 0
x_3_23_0 0
x_3_23_1 0
x_3_23_2 0
x_3_24_0 0
x_3_24_1 0
x_3_24_2 0
x_3_25_0 0
x_3_25_1 0
x_3_25_2 0
x_3_26_0 0
x_3_26_1 0
x_3_26_2 0
x_3_27_0 0
x_3_27_1 0
x_3_27_2 0
x_3_28_0 0
x_3_28_1 0
x_3_28_2 0
x_3_29_0 0
x_3_29_1 0
x_3_29_2 0
x_3_30_0 0
x_3_30_1 0
x_3_30_2 0
x_3_31_0 0
x_3_31_1 0
x_3_31_2 0
x_3_32_0 0
x_3_32_1 0
x_3_32_2 0
x_3_33_0 0
x_3_33_1 0
x_3_33_2 0
x_3_34_0 0
x_3_34_1 0
x_3_34_2 0
x_3_35_0 0
x_3_35_1 0
x_3_35_2 0
x_4_5_0 0
x_4_5_1 0
x_4_5_2 0
x_4_6_0 0
x_4_6_1 0
x_4_6_2 0
x_4_7_0 0
x_4_7_1 0
x_4_7_2 0
x_4_8_0 0
x_4_8_1 0
x_4_8_2 0
x_4_9_0 0
x_4_9_1 0
x_4_9_2 0
x_4_10_0 0
x_4_10_1 0
x_4_10_2 0
x_4_11_0 -9.7366559259626229e-14
x_4_11_1 2.9639641711006464e-14
x_4_11_2 0
x_4_12_0 0
x_4_12_1 0
x_4_12_2 0
x_4_13_0 0
x_4_13_1 0
x_4_13_2 0
x_4_14_0 0
x_4_14_1 0
x_4_14_2 0
x_4_15_0 0
x_4_15_1 0
x_4_15_2 0
x_4_16_0 1.0000000000003948e+00
x_4_16_1 0
x_4_16_2 0
x_4_17_0 0
x_4_17_1 0
x_4_17_2 0
x_4_18_0 0
x_4_18_1 0
x_4_18_2 0
x_4_19_0 0
x_4_19_1 0
x_4_19_2 0
x_4_20_0 0
x_4_20_1 0
x_4_20_2 0
x_4_21_0 0
x_4_21_1 0
x_4_21_2 0
x_4_22_0 0
x_4_22_1 0
x_4_22_2 0
x_4_23_0 0
x_4_23_1 0
x_4_23_2 0
x_4_24_0 0
x_4_24_1 0
x_4_24_2 0
x_4_25_0 0
x_4_25_1 0
x_4_25_2 0
x_4_26_0 1
x_4_26_1 0
x_4_26_2 0
x_4_27_0 0
x_4_27_1 0
x_4_27_2 0
x_4_28_0 0
x_4_28_1 0
x_4_28_2 0
x_4_29_0 0
x_4_29_1 0
x_4_29_2 0
x_4_30_0 0
x_4_30_1 0
x_4_30_2 0
x_4_31_0 0
x_4_31_1 0
x_4_31_2 0
x_4_32_0 0
x_4_32_1 0
x_4_32_2 0
x_4_33_0 0
x_4_33_1 0
x_4_33_2 0
x_4_34_0 0
x_4_34_1 0
x_4_34_2 0
x_4_35_0 -1.0280665208028950e-13
x_4_35_1 0
x_4_35_2 0
x_5_6_0 0
x_5_6_1 0
x_5_6_2 0
x_5_7_0 0
x_5_7_1 0
x_5_7_2 0
x_5_8_0 0
x_5_8_1 1.0000000000002227e+00
x_5_8_2 5.3929083421166979e-14
x_5_9_0 0
x_5_9_1 0
x_5_9_2 0
x_5_10_0 0
x_5_10_1 0
x_5_10_2 0
x_5_11_0 0
x_5_11_1 0
x_5_11_2 0
x_5_12_0 0
x_5_12_1 0
x_5_12_2 0
x_5_13_0 0
x_5_13_1 0
x_5_13_2 0
x_5_14_0 0
x_5_14_1 0
x_5_14_2 0
x_5_15_0 0
x_5_15_1 0
x_5_15_2 0
x_5_16_0 0
x_5_16_1 0
x_5_16_2 0
x_5_17_0 0
x_5_17_1 0
x_5_17_2 0
x_5_18_0 0
x_5_18_1 0
x_5_18_2 0
x_5_19_0 0
x_5_19_1 0
x_5_19_2 0
x_5_20_0 0
x_5_20_1 0
x_5_20_2 0
x_5_21_0 0
x_5_21_1 0
x_5_21_2 0
x_5_22_0 0
x_5_22_1 0
x_5_22_2 0
x_5_23_0 0
x_5_23_1 0
x_5_23_2 0
x_5_24_0 0
x_5_24_1 0
x_5_24_2 0
x_5_25_0 0
x_5_25_1 0
x_5_25_2 0
x_5_26_0 0
x_5_26_1 0
x_5_26_2 0
x_5_27_0 0
x_5_27_1 0
x_5_27_2 0
x_5_28_0 0
x_5_28_1 9.9999999999977718e-01
x_5_28_2 -5.3929083421166979e-14
x_5_29_0 0
x_5_29_1 0
x_5_29_2 0
x_5_30_0 0
x_5_30_1 0
x_5_30_2 0
x_5_31_0 0
x_5_31_1 0
x_5_31_2 0
x_5_32_0 0
x_5_32_1 0
x_5_32_2 0
x_5_33_0 0
x_5_33_1 0
x_5_33_2 0
x_5_34_0 0
x_5_34_1 0
x_5_34_2 0
x_5_35_0 0
x_5_35_1 0
x_5_35_2 0
x_6_7_0 1.9206858326015208e-14
x_6_7_1 -1.4022327684066579e-13
x_6_7_2 0
x_6_8_0 0
x_6_8_1 0
x_6_8_2 0
x_6_9_0 0
x_6_9_1 0
x_6_9_2 0
x_6_10_0 0
x_6_10_1 0
x_6_10_2 0
x_6_11_0 0
x_6_11_1 0
x_6_11_2 0
x_6_12_0 -1.9206858326015208e-14
x_6_12_1 1.0000000000001403e+00
x_6_12_2 0
x_6_13_0 0
x_6_13_1 0
x_6_13_2 0
x_6_14_0 0
x_6_14_1 0
x_6_14_2 0
x_6_15_0 0
x_6_15_1 0
x_6_15_2 0
x_6_16_0 0
x_6_16_1 0
x_6_16_2 0
x_6_17_0 0
x_6_17_1 0
x_6_17_2 0
x_6_18_0 0
x_6_18_1 0
x_6_18_2 0
x_6_19_0 0
x_6_19_1 0
x_6_19_2 0
x_6_20_0 0
x_6_20_1 0
x_6_20_2 0
x_6_21_0 0
x_6_21_1 0
x_6_21_2 0
x_6_22_0 0
x_6_22_1 0
x_6_22_2 0
x_6_23_0 0
x_6_23_1 0
x_6_23_2 0
x_6_24_0 0
x_6_24_1 0
x_6_24_2 0
x_6_25_0 0
x_6_25_1 0
x_6_25_2 0
x_6_26_0 0
x_6_26_1 0
x_6_26_2 0
x_6_27_0 0
x_6_27_1 0
x_6_27_2 0
x_6_28_0 0
x_6_28_1 0
x_6_28_2 0
x_6_29_0 0
x_6_29_1 0
x_6_29_2 0
x_6_30_0 0
x_6_30_1 1
x_6_30_2 0
x_6_31_0 0
x_6_31_1 0
x_6_31_2 0
x_6_32_0 0
x_6_32_1 0
x_6_32_2 0
x_6_33_0 0
x_6_33_1 0
x_6_33_2 0
x_6_34_0 0
x_6_34_1 0
x_6_34_2 0
x_6_35_0 0
x_6_35_1 0
x_6_35_2 0
x_7_8_0 0
x_7_8_1 0
x_7_8_2 0
x_7_9_0 0
x_7_9_1 0
x_7_9_2 0
x_7_10_0 0
x_7_10_1 0
x_7_10_2 0
x_7_11_0 0
x_7_11_1 0
x_7_11_2 0
x_7_12_0 0
x_7_12_1 0
x_7_12_2 0
x_7_13_0 -1.9206858326015208e-14
x_7_13_1 1.0000000000001350e+00
x_7_13_2 0
x_7_14_0 0
x_7_14_1 0
x_7_14_2 0
x_7_15_0 0
x_7_15_1 0
x_7_15_2 0
x_7_16_0 0
x_7_16_1 0
x_7_16_2 0
x_7_17_0 0
x_7_17_1 0
x_7_17_2 0
x_7_18_0 0
x_7_18_1 0
x_7_18_2 0
x_7_19_0 0
x_7_19_1 0
x_7_19_2 0
x_7_20_0 0
x_7_20_1 0
x_7_20_2 0
x_7_21_0 0
x_7_21_1 0
x_7_21_2 0
x_7_22_0 0
x_7_22_1 0
x_7_22_2 0
x_7_23_0 0
x_7_23_1 0
x_7_23_2 0
x_7_24_0 0
x_7_24_1 0
x_7_24_2 0
x_7_25_0 0
x_7_25_1 0
x_7_25_2 0
x_7_26_0 0
x_7_26_1 0
x_7_26_2 0
x_7_27_0 0
x_7_27_1 0
x_7_27_2 0
x_7_28_0 0
x_7_28_1 0
x_7_28_2 0
x_7_29_0 0
x_7_29_1 0
x_7_29_2 0
x_7_30_0 0
x_7_30_1 0
x_7_30_2 0
x_7_31_0 0
x_7_31_1 0
x_7_31_2 0
x_7_32_0 0
x_7_32_1 0
x_7_32_2 0
x_7_33_0 0
x_7_33_1 0
x_7_33_2 0
x_7_34_0 0
x_7_34_1 0
x_7_34_2 0
x_7_35_0 0
x_7_35_1 0
x_7_35_2 0
x_8_9_0 0
x_8_9_1 0
x_8_9_2 0
x_8_10_0 0
x_8_10_1 0
x_8_10_2 0
x_8_11_0 0
x_8_11_1 0
x_8_11_2 0
x_8_12_0 0
x_8_12_1 0
x_8_12_2 0
x_8_13_0 0
x_8_13_1 0
x_8_13_2 0
x_8_14_0 0
x_8_14_1 0
x_8_14_2 0
x_8_15_0 0
x_8_15_1 0
x_8_15_2 0
x_8_16_0 0
x_8_16_1 0
x_8_16_2 0
x_8_17_0 0
x_8_17_1 0
x_8_17_2 0
x_8_18_0 0
x_8_18_1 0
x_8_18_2 0
x_8_19_0 -2.6645352591003757e-14
x_8_19_1 1
x_8_19_2 1.0791367799356522e-13
x_8_20_0 0
x_8_20_1 0
x_8_20_2 0
x_8_21_0 0
x_8_21_1 0
x_8_21_2 0
x_8_22_0 0
x_8_22_1 0
x_8_22_2 0
x_8_23_0 0
x_8_23_1 0
x_8_23_2 0
x_8_24_0 0
x_8_24_1 0
x_8_24_2 0
x_8_25_0 0
x_8_25_1 0
x_8_25_2 0
x_8_26_0 0
x_8_26_1 0
x_8_26_2 0
x_8_27_0 0
x_8_27_1 0
x_8_27_2 0
x_8_28_0 0
x_8_28_1 0
x_8_28_2 -5.3929083421166979e-14
x_8_29_0 -5.4900528567713991e-14
x_8_29_1 -2.2286128883313503e-13
x_8_29_2 0
x_8_30_0 0
x_8_30_1 0
x_8_30_2 0
x_8_31_0 0
x_8_31_1 0
x_8_31_2 0
x_8_32_0 0
x_8_32_1 0
x_8_32_2 0
x_8_33_0 0
x_8_33_1 0
x_8_33_2 0
x_8_34_0 0
x_8_34_1 0
x_8_34_2 0
x_8_35_0 0
x_8_35_1 0
x_8_35_2 0
x_9_10_0 0
x_9_10_1 0
x_9_10_2 0
x_9_11_0 3.9079850466805510e-14
x_9_11_1 0
x_9_11_2 0
x_9_12_0 0
x_9_12_1 0
x_9_12_2 0
x_9_13_0 1.9206858326015208e-14
x_9_13_1 1.0000000000000002e+00
x_9_13_2 0
x_9_14_0 0
x_9_14_1 0
x_9_14_2 0
x_9_15_0 0
x_9_15_1 0
x_9_15_2 0
x_9_16_0 0
x_9_16_1 0
x_9_16_2 0
x_9_17_0 0
x_9_17_1 0
x_9_17_2 0
x_9_18_0 0
x_9_18_1 0
x_9_18_2 0
x_9_19_0 0
x_9_19_1 0
x_9_19_2 0
x_9_20_0 0
x_9_20_1 0
x_9_20_2 0
x_9_21_0 0
x_9_21_1 0
x_9_21_2 0
x_9_22_0 0
x_9_22_1 0
x_9_22_2 0
x_9_23_0 0
x_9_23_1 0
x_9_23_2 0
x_9_24_0 0
x_9_24_1 0
x_9_24_2 0
x_9_25_0 4.4408920985006262e-16
x_9_25_1 0
x_9_25_2 0
x_9_26_0 0
x_9_26_1 0
x_9_26_2 0
x_9_27_0 0
x_9_27_1 0
x_9_27_2 0
x_9_28_0 0
x_9_28_1 0
x_9_28_2 0
x_9_29_0 0
x_9_29_1 0
x_9_29_2 0
x_9_30_0 0
x_9_30_1 0
x_9_30_2 0
x_9_31_0 0
x_9_31_1 0
x_9_31_2 0
x_9_32_0 0
x_9_32_1 0
x_9_32_2 0
x_9_33_0 0
x_9_33_1 0
x_9_33_2 0
x_9_34_0 0
x_9_34_1 0
x_9_34_2 0
x_9_35_0 0
x_9_35_1 0
x_9_35_2 0
x_10_11_0 0
x_10_11_1 0
x_10_11_2 0
x_10_12_0 0
x_10_12_1 0
x_10_12_2 0
x_10_13_0 0
x_10_13_1 0
x_10_13_2 0
x_10_14_0 0
x_10_14_1 0
x_10_14_2 0
x_10_15_0 0
x_10_15_1 0
x_10_15_2 0
x_10_16_0 0
x_10_16_1 -3.9490632985916818e-13
x_10_16_2 1.0000000000002889e+00
x_10_17_0 0
x_10_17_1 0
x_10_17_2 0
x_10_18_0 0
x_10_18_1 0
x_10_18_2 0
x_10_19_0 0
x_10_19_1 0
x_10_19_2 0
x_10_20_0 0
x_10_20_1 0
x_10_20_2 0
x_10_21_0 0
x_10_21_1 0
x_10_21_2 0
x_10_22_0 0
x_10_22_1 0
x_10_22_2 0
x_10_23_0 0
x_10_23_1 0
x_10_23_2 -5.5427884504410940e-14
x_10_24_0 0
x_10_24_1 0
x_10_24_2 0
x_10_25_0 0
x_10_25_1 0
x_10_25_2 0
x_10_26_0 0
x_10_26_1 0
x_10_26_2 0
x_10_27_0 0
x_10_27_1 0
x_10_27_2 -1.9814705431997481e-13
x_10_28_0 0
x_10_28_1 0
x_10_28_2 0
x_10_29_0 0
x_10_29_1 0
x_10_29_2 0
x_10_30_0 0
x_10_30_1 0
x_10_30_2 0
x_10_31_0 0
x_10_31_1 0
x_10_31_2 0
x_10_32_0 -1.7147194725829788e-13
x_10_32_1 -1.9095836023552692e-13
x_10_32_2 1.0000000000003990e+00
x_10_33_0 0
x_10_33_1 0
x_10_33_2 0
x_10_34_0 0
x_10_34_1 0
x_10_34_2 0
x_10_35_0 0
x_10_35_1 0
x_10_35_2 0
x_11_12_0 0
x_11_12_1 1.0000000000001357e+00
x_11_12_2 0
x_11_13_0 0
x_11_13_1 0
x_11_13_2 0
x_11_14_0 0
x_11_14_1 0
x_11_14_2 0
x_11_15_0 0
x_11_15_1 0
x_11_15_2 0
x_11_16_0 0
x_11_16_1 0
x_11_16_2 0
x_11_17_0 0
x_11_17_1 0
x_11_17_2 0
x_11_18_0 0
x_11_18_1 0
x_11_18_2 0
x_11_19_0 0
x_11_19_1 0
x_11_19_2 0
x_11_20_0 0
x_11_20_1 0
x_11_20_2 0
x_11_21_0 0
x_11_21_1 0
x_11_21_2 0
x_11_22_0 0
x_11_22_1 0
x_11_22_2 0
x_11_23_0 0
x_11_23_1 0
x_11_23_2 0
x_11_24_0 0
x_11_24_1 0
x_11_24_2 0
x_11_25_0 0
x_11_25_1 1
x_11_25_2 0
x_11_26_0 0
x_11_26_1 0
x_11_26_2 0
x_11_27_0 0
x_11_27_1 0
x_11_27_2 0
x_11_28_0 0
x_11_28_1 0
x_11_28_2 0
x_11_29_0 0
x_11_29_1 0
x_11_29_2 0
x_11_30_0 0
x_11_30_1 0
x_11_30_2 0
x_11_31_0 0
x_11_31_1 0
x_11_31_2 0
x_11_32_0 0
x_11_32_1 0
x_11_32_2 0
x_11_33_0 0
x_11_33_1 0
x_11_33_2 0
x_11_34_0 0
x_11_34_1 0
x_11_34_2 0
x_11_35_0 0
x_11_35_1 -6.4392935428259079e-15
x_11_35_2 0
x_12_13_0 0
x_12_13_1 -1.3522694523428859e-13
x_12_13_2 0
x_12_14_0 0
x_12_14_1 0
x_12_14_2 0
x_12_15_0 0
x_12_15_1 0
x_12_15_2 0
x_12_16_0 0
x_12_16_1 0
x_12_16_2 0
x_12_17_0 0
x_12_17_1 0
x_12_17_2 0
x_12_18_0 0
x_12_18_1 0
x_12_18_2 0
x_12_19_0 0
x_12_19_1 0
x_12_19_2 0
x_12_20_0 0
x_12_20_1 0
x_12_20_2 0
x_12_21_0 0
x_12_21_1 0
x_12_21_2 0
x_12_22_0 0
x_12_22_1 0
x_12_22_2 0
x_12_23_0 0
x_12_23_1 0
x_12_23_2 0
x_12_24_0 0
x_12_24_1 0
x_12_24_2 0
x_12_25_0 0
x_12_25_1 0
x_12_25_2 0
x_12_26_0 0
x_12_26_1 0
x_12_26_2 0
x_12_27_0 0
x_12_27_1 0
x_12_27_2 0
x_12_28_0 0
x_12_28_1 0
x_12_28_2 0
x_12_29_0 0
x_12_29_1 0
x_12_29_2 0
x_12_30_0 1.9206858326015208e-14
x_12_30_1 -1.4022327684066579e-13
x_12_30_2 0
x_12_31_0 0
x_12_31_1 0
x_12_31_2 0
x_12_32_0 0
x_12_32_1 0
x_12_32_2 0
x_12_33_0 0
x_12_33_1 0
x_12_33_2 0
x_12_34_0 0
x_12_34_1 0
x_12_34_2 0
x_12_35_0 0
x_12_35_1 0
x_12_35_2 0
x_13_14_0 0
x_13_14_1 0
x_13_14_2 0
x_13_15_0 0
x_13_15_1 0
x_13_15_2 0
x_13_16_0 0
x_13_16_1 0
x_13_16_2 0
x_13_17_0 0
x_13_17_1 0
x_13_17_2 0
x_13_18_0 0
x_13_18_1 0
x_13_18_2 0
x_13_19_0 0
x_13_19_1 0
x_13_19_2 0
x_13_20_0 0
x_13_20_1 0
x_13_20_2 0
x_13_21_0 0
x_13_21_1 0
x_13_21_2 0
x_13_22_0 0
x_13_22_1 0
x_13_22_2 0
x_13_23_0 0
x_13_23_1 0
x_13_23_2 0
x_13_24_0 0
x_13_24_1 0
x_13_24_2 0
x_13_25_0 0
x_13_25_1 0
x_13_25_2 0
x_13_26_0 0
x_13_26_1 0
x_13_26_2 0
x_13_27_0 0
x_13_27_1 0
x_13_27_2 0
x_13_28_0 0
x_13_28_1 0
x_13_28_2 0
x_13_29_0 0
x_13_29_1 0
x_13_29_2 0
x_13_30_0 0
x_13_30_1 0
x_13_30_2 0
x_13_31_0 0
x_13_31_1 0
x_13_31_2 0
x_13_32_0 0
x_13_32_1 0
x_13_32_2 0
x_13_33_0 0
x_13_33_1 0
x_13_33_2 0
x_13_34_0 0
x_13_34_1 0
x_13_34_2 0
x_13_35_0 0
x_13_35_1 0
x_13_35_2 0
x_14_15_0 0
x_14_15_1 0
x_14_15_2 0
x_14_16_0 0
x_14_16_1 0
x_14_16_2 0
x_14_17_0 0
x_14_17_1 0
x_14_17_2 0
x_14_18_0 0
x_14_18_1 0
x_14_18_2 0
x_14_19_0 0
x_14_19_1 -2.4535928844215960e-13
x_14_19_2 0
x_14_20_0 0
x_14_20_1 0
x_14_20_2 0
x_14_21_0 0
x_14_21_1 0
x_14_21_2 0
x_14_22_0 0
x_14_22_1 0
x_14_22_2 0
x_14_23_0 0
x_14_23_1 0
x_14_23_2 0
x_14_24_0 0
x_14_24_1 0
x_14_24_2 0
x_14_25_0 0
x_14_25_1 0
x_14_25_2 0
x_14_26_0 0
x_14_26_1 0
x_14_26_2 0
x_14_27_0 0
x_14_27_1 0
x_14_27_2 0
x_14_28_0 0
x_14_28_1 0
x_14_28_2 0
x_14_29_0 0
x_14_29_1 0
x_14_29_2 0
x_14_30_0 -1.9206858326015208e-14
x_14_30_1 3.9279690611238038e-13
x_14_30_2 0
x_14_31_0 0
x_14_31_1 0
x_14_31_2 0
x_14_32_0 0
x_14_32_1 0
x_14_32_2 0
x_14_33_0 0
x_14_33_1 9.9999999999997891e-01
x_14_33_2 -1.3655743202889425e-14
x_14_34_0 0
x_14_34_1 0
x_14_34_2 0
x_14_35_0 0
x_14_35_1 0
x_14_35_2 0
x_15_16_0 0
x_15_16_1 0
x_15_16_2 0
x_15_17_0 0
x_15_17_1 0
x_15_17_2 0
x_15_18_0 0
x_15_18_1 0
x_15_18_2 0
x_15_19_0 0
x_15_19_1 3.5083047578154947e-14
x_15_19_2 0
x_15_20_0 -2.9898306053155466e-13
x_15_20_1 9.9999999999987232e-01
x_15_20_2 -3.0115673956690169e-13
x_15_21_0 0
x_15_21_1 0
x_15_21_2 0
x_15_22_0 2.9698465908722937e-13
x_15_22_1 1
x_15_22_2 3.0115673956690169e-13
x_15_23_0 0
x_15_23_1 0
x_15_23_2 0
x_15_24_0 0
x_15_24_1 0
x_15_24_2 0
x_15_25_0 0
x_15_25_1 0
x_15_25_2 0
x_15_26_0 0
x_15_26_1 0
x_15_26_2 0
x_15_27_0 0
x_15_27_1 0
x_15_27_2 0
x_15_28_0 0
x_15_28_1 0
x_15_28_2 0
x_15_29_0 0
x_15_29_1 0
x_15_29_2 0
x_15_30_0 0
x_15_30_1 0
x_15_30_2 0
x_15_31_0 0
x_15_31_1 0
x_15_31_2 0
x_15_32_0 0
x_15_32_1 0
x_15_32_2 0
x_15_33_0 0
x_15_33_1 0
x_15_33_2 0
x_15_34_0 0
x_15_34_1 -2.0450308113595383e-13
x_15_34_2 0
x_15_35_0 0
x_15_35_1 0
x_15_35_2 0
x_16_17_0 0
x_16_17_1 0
x_16_17_2 2.3926440498669078e-13
x_16_18_0 0
x_16_18_1 0
x_16_18_2 0
x_16_19_0 0
x_16_19_1 0
x_16_19_2 0
x_16_20_0 0
x_16_20_1 0
x_16_20_2 0
x_16_21_0 0
x_16_21_1 0
x_16_21_2 0
x_16_22_0 0
x_16_22_1 0
x_16_22_2 0
x_16_23_0 1.00000000000018
x_16_23_1 -3.9668268669856843e-13
x_16_23_2 0
x_16_24_0 0
x_16_24_1 0
x_16_24_2 0
x_16_25_0 0
x_16_25_1 0
x_16_25_2 0
x_16_26_0 0
x_16_26_1 0
x_16_26_2 1
x_16_27_0 0
x_16_27_1 0
x_16_27_2 0
x_16_28_0 0
x_16_28_1 0
x_16_28_2 0
x_16_29_0 0
x_16_29_1 0
x_16_29_2 0
x_16_30_0 0
x_16_30_1 0
x_16_30_2 0
x_16_31_0 0
x_16_31_1 0
x_16_31_2 0
x_16_32_0 0
x_16_32_1 0
x_16_32_2 0
x_16_33_0 0
x_16_33_1 0
x_16_33_2 0
x_16_34_0 0
x_16_34_1 0
x_16_34_2 0
x_16_35_0 0
x_16_35_1 0
x_16_35_2 0
x_17_18_0 0
x_17_18_1 0
x_17_18_2 0
x_17_19_0 0
x_17_19_1 0
x_17_19_2 0
x_17_20_0 0
x_17_20_1 0
x_17_20_2 0
x_17_21_0 0
x_17_21_1 0
x_17_21_2 0
x_17_22_0 0
x_17_22_1 0
x_17_22_2 0
x_17_23_0 0
x_17_23_1 0
x_17_23_2 0
x_17_24_0 0
x_17_24_1 0
x_17_24_2 0
x_17_25_0 0
x_17_25_1 0
x_17_25_2 0
x_17_26_0 1.0000000000001710e+00
x_17_26_1 -6.6613381477509392e-16
x_17_26_2 5.3623772089395061e-14
x_17_27_0 0
x_17_27_1 0
x_17_27_2 0
x_17_28_0 0
x_17_28_1 0
x_17_28_2 0
x_17_29_0 0
x_17_29_1 0
x_17_29_2 0
x_17_30_0 0
x_17_30_1 0
x_17_30_2 0
x_17_31_0 0
x_17_31_1 0
x_17_31_2 0
x_17_32_0 0
x_17_32_1 0
x_17_32_2 0
x_17_33_0 0
x_17_33_1 0
x_17_33_2 0
x_17_34_0 0
x_17_34_1 0
x_17_34_2 0
x_17_35_0 0
x_17_35_1 0
x_17_35_2 -1.3922196728799463e-13
x_18_19_0 0
x_18_19_1 0
x_18_19_2 0
x_18_20_0 0
x_18_20_1 1.4210854715202004e-13
x_18_20_2 0
x_18_21_0 0
x_18_21_1 0
x_18_21_2 0
x_18_22_0 0
x_18_22_1 0
x_18_22_2 0
x_18_23_0 0
x_18_23_1 0
x_18_23_2 0
x_18_24_0 -1.5132339825640884e-13
x_18_24_1 1
x_18_24_2 -4.5921599856058037e-13
x_18_25_0 0
x_18_25_1 0
x_18_25_2 0
x_18_26_0 0
x_18_26_1 0
x_18_26_2 0
x_18_27_0 0
x_18_27_1 0
x_18_27_2 0
x_18_28_0 0
x_18_28_1 0
x_18_28_2 0
x_18_29_0 0
x_18_29_1 0
x_18_29_2 0
x_18_30_0 0
x_18_30_1 0
x_18_30_2 0
x_18_31_0 0
x_18_31_1 0
x_18_31_2 0
x_18_32_0 0
x_18_32_1 0
x_18_32_2 0
x_18_33_0 0
x_18_33_1 0
x_18_33_2 0
x_18_34_0 -1.4965806371947110e-13
x_18_34_1 1.0000000000001514e+00
x_18_34_2 1.5720758028692217e-13
x_18_35_0 0
x_18_35_1 0
x_18_35_2 0
x_19_20_0 0
x_19_20_1 0
x_19_20_2 0
x_19_21_0 0
x_19_21_1 0
x_19_21_2 0
x_19_22_0 0
x_19_22_1 0
x_19_22_2 0
x_19_23_0 0
x_19_23_1 0
x_19_23_2 0
x_19_24_0 0
x_19_24_1 0
x_19_24_2 0
x_19_25_0 0
x_19_25_1 0
x_19_25_2 0
x_19_26_0 0
x_19_26_1 0
x_19_26_2 0
x_19_27_0 0
x_19_27_1 0
x_19_27_2 0
x_19_28_0 0
x_19_28_1 0
x_19_28_2 0
x_19_29_0 0
x_19_29_1 0
x_19_29_2 0
x_19_30_0 0
x_19_30_1 0
x_19_30_2 0
x_19_31_0 0
x_19_31_1 0
x_19_31_2 0
x_19_32_0 0
x_19_32_1 0
x_19_32_2 0
x_19_33_0 0
x_19_33_1 9.9999999999997891e-01
x_19_33_2 -1.5432100042289676e-14
x_19_34_0 0
x_19_34_1 0
x_19_34_2 0
x_19_35_0 0
x_19_35_1 0
x_19_35_2 0
x_20_21_0 0
x_20_21_1 0
x_20_21_2 0
x_20_22_0 0
x_20_22_1 0
x_20_22_2 0
x_20_23_0 0
x_20_23_1 0
x_20_23_2 0
x_20_24_0 0
x_20_24_1 0
x_20_24_2 0
x_20_25_0 0
x_20_25_1 0
x_20_25_2 0
x_20_26_0 0
x_20_26_1 0
x_20_26_2 0
x_20_27_0 0
x_20_27_1 0
x_20_27_2 0
x_20_28_0 0
x_20_28_1 0
x_20_28_2 0
x_20_29_0 0
x_20_29_1 0
x_20_29_2 0
x_20_30_0 0
x_20_30_1 0
x_20_30_2 0
x_20_31_0 2.9898306053155466e-13
x_20_31_1 1
x_20_31_2 3.0115673956690169e-13
x_20_32_0 0
x_20_32_1 0
x_20_32_2 0
x_20_33_0 0
x_20_33_1 0
x_20_33_2 0
x_20_34_0 0
x_20_34_1 -1.4516166046973922e-14
x_20_34_2 0
x_20_35_0 0
x_20_35_1 0
x_20_35_2 0
x_21_22_0 0
x_21_22_1 0
x_21_22_2 0
x_21_23_0 1.0000000000000491e+00
x_21_23_1 1.2551071293387395e-13
x_21_23_2 1
x_21_24_0 0
x_21_24_1 0
x_21_24_2 0
x_21_25_0 0
x_21_25_1 0
x_21_25_2 0
x_21_26_0 0
x_21_26_1 0
x_21_26_2 0
x_21_27_0 0
x_21_27_1 0
x_21_27_2 0
x_21_28_0 0
x_21_28_1 0
x_21_28_2 0
x_21_29_0 0
x_21_29_1 0
x_21_29_2 0
x_21_30_0 0
x_21_30_1 0
x_21_30_2 0
x_21_31_0 0
x_21_31_1 0
x_21_31_2 0
x_21_32_0 0
x_21_32_1 -6.1520233352041487e-14
x_21_32_2 0
x_21_33_0 0
x_21_33_1 0
x_21_33_2 0
x_21_34_0 0
x_21_34_1 0
x_21_34_2 0
x_21_35_0 0
x_21_35_1 0
x_21_35_2 0
x_22_23_0 0
x_22_23_1 0
x_22_23_2 0
x_22_24_0 0
x_22_24_1 0
x_22_24_2 0
x_22_25_0 0
x_22_25_1 0
x_22_25_2 0
x_22_26_0 0
x_22_26_1 0
x_22_26_2 0
x_22_27_0 0
x_22_27_1 0
x_22_27_2 0
x_22_28_0 0
x_22_28_1 0
x_22_28_2 0
x_22_29_0 0
x_22_29_1 0
x_22_29_2 0
x_22_30_0 0
x_22_30_1 0
x_22_30_2 0
x_22_31_0 0
x_22_31_1 0
x_22_31_2 0
x_22_32_0 0
x_22_32_1 0
x_22_32_2 0
x_22_33_0 0
x_22_33_1 0
x_22_33_2 0
x_22_34_0 0
x_22_34_1 0
x_22_34_2 0
x_22_35_0 0
x_22_35_1 0
x_22_35_2 0
x_23_24_0 0
x_23_24_1 0
x_23_24_2 0
x_23_25_0 0
x_23_25_1 0
x_23_25_2 0
x_23_26_0 -1.7169599075828046e-13
x_23_26_1 6.6613381477509392e-16
x_23_26_2 9.9999999999994615e-01
x_23_27_0 0
x_23_27_1 0
x_23_27_2 0
x_23_28_0 0
x_23_28_1 0
x_23_28_2 0
x_23_29_0 0
x_23_29_1 0
x_23_29_2 0
x_23_30_0 0
x_23_30_1 0
x_23_30_2 0
x_23_31_0 0
x_23_31_1 0
x_23_31_2 0
x_23_32_0 0
x_23_32_1 0
x_23_32_2 0
x_23_33_0 0
x_23_33_1 0
x_23_33_2 0
x_23_34_0 0
x_23_34_1 0
x_23_34_2 0
x_23_35_0 0
x_23_35_1 0
x_23_35_2 0
x_24_25_0 0
x_24_25_1 0
x_24_25_2 0
x_24_26_0 0
x_24_26_1 0
x_24_26_2 0
x_24_27_0 0
x_24_27_1 -2.5868196473766147e-14
x_24_27_2 0
x_24_28_0 0
x_24_28_1 0
x_24_28_2 0
x_24_29_0 0
x_24_29_1 0
x_24_29_2 0
x_24_30_0 0
x_24_30_1 0
x_24_30_2 0
x_24_31_0 -2.9698465908722937e-13
x_24_31_1 1
x_24_31_2 2.97983859809392e-13
x_24_32_0 0
x_24_32_1 0
x_24_32_2 0
x_24_33_0 0
x_24_33_1 0
x_24_33_2 0
x_24_34_0 4.4952930267072588e-13
x_24_34_1 -2.9010127633455340e-13
x_24_34_2 1.5762391392115660e-13
x_24_35_0 0
x_24_35_1 0
x_24_35_2 0
x_25_26_0 0
x_25_26_1 0
x_25_26_2 0
x_25_27_0 0
x_25_27_1 0
x_25_27_2 0
x_25_28_0 0
x_25_28_1 0
x_25_28_2 0
x_25_29_0 0
x_25_29_1 0
x_25_29_2 0
x_25_30_0 0
x_25_30_1 0
x_25_30_2 0
x_25_31_0 0
x_25_31_1 0
x_25_31_2 0
x_25_32_0 0
x_25_32_1 0
x_25_32_2 0
x_25_33_0 0
x_25_33_1 0
x_25_33_2 0
x_25_34_0 0
x_25_34_1 0
x_25_34_2 0
x_25_35_0 0
x_25_35_1 0
x_25_35_2 0
x_26_27_0 0
x_26_27_1 0
x_26_27_2 0
x_26_28_0 0
x_26_28_1 0
x_26_28_2 0
x_26_29_0 0
x_26_29_1 0
x_26_29_2 0
x_26_30_0 0
x_26_30_1 0
x_26_30_2 0
x_26_31_0 0
x_26_31_1 0
x_26_31_2 0
x_26_32_0 0
x_26_32_1 0
x_26_32_2 0
x_26_33_0 0
x_26_33_1 0
x_26_33_2 0
x_26_34_0 0
x_26_34_1 0
x_26_34_2 0
x_26_35_0 0
x_26_35_1 0
x_26_35_2 0
x_27_28_0 0
x_27_28_1 0
x_27_28_2 0
x_27_29_0 0
x_27_29_1 0
x_27_29_2 0
x_27_30_0 0
x_27_30_1 0
x_27_30_2 0
x_27_31_0 0
x_27_31_1 0
x_27_31_2 0
x_27_32_0 -1.7147194725829788e-13
x_27_32_1 -1.2934098236883074e-13
x_27_32_2 1.0000000000003986e+00
x_27_33_0 0
x_27_33_1 0
x_27_33_2 0
x_27_34_0 0
x_27_34_1 0
x_27_34_2 0
x_27_35_0 0
x_27_35_1 0
x_27_35_2 0
x_28_29_0 0
x_28_29_1 1.0000000000000306e+00
x_28_29_2 0
x_28_30_0 0
x_28_30_1 0
x_28_30_2 0
x_28_31_0 0
x_28_31_1 0
x_28_31_2 0
x_28_32_0 0
x_28_32_1 0
x_28_32_2 0
x_28_33_0 0
x_28_33_1 0
x_28_33_2 0
x_28_34_0 0
x_28_34_1 0
x_28_34_2 0
x_28_35_0 0
x_28_35_1 0
x_28_35_2 0
x_29_30_0 0
x_29_30_1 0
x_29_30_2 0
x_29_31_0 0
x_29_31_1 0
x_29_31_2 0
x_29_32_0 0
x_29_32_1 0
x_29_32_2 0
x_29_33_0 0
x_29_33_1 0
x_29_33_2 0
x_29_34_0 5.4900528567713991e-14
x_29_34_1 9.9999999999993916e-01
x_29_34_2 0
x_29_35_0 0
x_29_35_1 0
x_29_35_2 0
x_30_31_0 0
x_30_31_1 0
x_30_31_2 0
x_30_32_0 0
x_30_32_1 0
x_30_32_2 0
x_30_33_0 0
x_30_33_1 0
x_30_33_2 0
x_30_34_0 0
x_30_34_1 0
x_30_34_2 0
x_30_35_0 0
x_30_35_1 9.9999999999972422e-01
x_30_35_2 0
x_31_32_0 0
x_31_32_1 0
x_31_32_2 0
x_31_33_0 0
x_31_33_1 0
x_31_33_2 0
x_31_34_0 0
x_31_34_1 0
x_31_34_2 0
x_31_35_0 0
x_31_35_1 0
x_31_35_2 0
x_32_33_0 0
x_32_33_1 0
x_32_33_2 0
x_32_34_0 0
x_32_34_1 0
x_32_34_2 0
x_32_35_0 0
x_32_35_1 0
x_32_35_2 0
x_33_34_0 0
x_33_34_1 0
x_33_34_2 0
x_33_35_0 0
x_33_35_1 0
x_33_35_2 0
x_34_35_0 0
x_34_35_1 0
x_34_35_2 0
